Problem:    
Rows:       248
Columns:    89 (72 integer, 72 binary)
Non-zeros:  820
Status:     INTEGER OPTIMAL
Objective:  value = 207.639269 (MINimum)

   No.   Row name        Activity     Lower bound   Upper bound
------ ------------    ------------- ------------- -------------
     1 r.5                   2207.64             0               
     2 r.6                  -1970.54      -1973.16               
     3 r.7                   207.639             0               
     4 r.8                  -24.2521      -1959.38               
     5 r.9                   207.639             0               
     6 r.10                 -16.9828      -1970.14               
     7 r.11                  2207.64             0               
     8 r.12                 -1901.46      -1956.18               
     9 r.13                  2207.64             0               
    10 r.14                 -1896.46      -1955.85               
    11 r.15                  207.639             0               
    12 r.16                 -1723.43      -1931.07               
    13 r.17                  2207.64             0               
    14 r.18                  -1943.1      -1975.07               
    15 r.19                  207.639             0               
    16 r.20                       10      -1960.75               
    17 r.21                  207.639             0               
    18 r.22                  12.6186       -1977.9               
    19 r.23                  2207.64             0               
    20 r.24                 -1965.27      -1965.27               
    21 r.25                  207.639             0               
    22 r.26                 -1720.68      -1928.32               
    23 r.27                  2207.64             0               
    24 r.28                 -1792.36      -1929.57               
    25 r.29                  2207.64             0               
    26 r.30                 -1792.36       -1928.6               
    27 r.31                  207.639             0               
    28 r.32                 -69.8771      -1929.63               
    29 r.33                  2207.64             0               
    30 r.34                 -1997.83      -1997.83               
    31 r.35                  207.639             0               
    32 r.36                 -1966.95      -1966.95               
    33 r.37                        1             1             = 
    34 r.38                        1             1             = 
    35 r.39                        1             1             = 
    36 r.40                        1             1             = 
    37 r.41                        1             1             = 
    38 r.42                        1             1             = 
    39 r.43                        1             1             = 
    40 r.44                        1             1             = 
    41 r.45                  1951.06       29.8576               
    42 r.46                 -1948.56      -1973.16               
    43 r.47                  127.797       43.8188               
    44 r.48                 -132.797      -1959.38               
    45 r.49                  71.5829       44.1484               
    46 r.50                 -71.5829      -1973.16               
    47 r.51                  305.819       68.9273               
    48 r.52                 -305.819      -1959.38               
    49 r.53                  24.9345       24.9345               
    50 r.54                 -24.9345      -1973.16               
    51 r.55                  39.2521       39.2521               
    52 r.56                 -39.2521      -1959.38               
    53 r.57                  1975.66       22.1014               
    54 r.58                 -1970.66      -1973.16               
    55 r.59                  73.9781       34.7259               
    56 r.60                 -83.9781      -1959.38               
    57 r.61                 -1752.64      -1895.62               
    58 r.62                 -1824.32      -1864.18               
    59 r.63                 -1691.42      -1895.62               
    60 r.64                 -1763.11      -1864.18               
    61 r.65                  175.677       71.4013               
    62 r.66                 -175.677      -1973.16               
    63 r.67                  1959.38       70.3683               
    64 r.68                 -1959.38      -1959.38               
    65 r.69                 -1970.21      -1970.66               
    66 r.70                 -31.4189      -1954.38               
    67 r.71                 -1.08891      -1970.66               
    68 r.72                   1937.7      -1954.38               
    69 r.73                  48.9446       26.8432               
    70 r.74                 -51.4446      -1970.14               
    71 r.75                   1872.2       40.6249               
    72 r.76                  -1867.2      -1956.18               
    73 r.77                  123.028       44.1484               
    74 r.78                 -123.028      -1970.14               
    75 r.79                  173.022       68.9273               
    76 r.80                 -173.022      -1956.18               
    77 r.81                  76.3791       24.9345               
    78 r.82                 -76.3791      -1970.14               
    79 r.83                  1906.46       39.2521               
    80 r.84                 -1906.46      -1956.18               
    81 r.85                  27.1014       22.1014               
    82 r.86                 -22.1014      -1970.14               
    83 r.87                  1941.18       34.7259               
    84 r.88                 -1951.18      -1956.18               
    85 r.89                  298.807       71.6847               
    86 r.90                 -298.807      -1970.14               
    87 r.91                  104.095        70.434               
    88 r.92                 -104.095      -1956.18               
    89 r.93                 -1772.88      -1895.91               
    90 r.94                 -50.3943      -1864.25               
    91 r.95                 -1895.91      -1895.91               
    92 r.96                 -173.422      -1864.25               
    93 r.97                 -21.6496      -1967.64               
    94 r.98                 -1898.62      -1951.18               
    95 r.99                  1947.47      -1967.64               
    96 r.100                  70.494      -1951.18               
    97 r.101                 1925.92       26.8432               
    98 r.102                -1928.42      -1955.85               
    99 r.103                 1699.18       40.6249               
   100 r.104                -1694.18      -1931.07               
   101 r.105                 1879.47       29.8576               
   102 r.106                -1876.97      -1955.85               
   103 r.107                 1821.98       43.8188               
   104 r.108                -1826.98      -1931.07               
   105 r.109                -1953.35      -1953.35               
   106 r.110                -1780.33      -1926.07               
   107 r.111                -1906.46      -1953.35               
   108 r.112                -1733.43      -1926.07               
   109 r.113                 1904.07       22.1014               
   110 r.114                -1899.07      -1955.85               
   111 r.115                 1768.16       34.7259               
   112 r.116                -1778.16      -1931.07               
   113 r.117                 175.779       71.6847               
   114 r.118                -175.779      -1955.85               
   115 r.119                 1931.07        70.434               
   116 r.120                -1931.07      -1931.07               
   117 r.121                -1895.91      -1895.91               
   118 r.122                -173.422      -1864.25               
   119 r.123                -68.9273      -1895.91               
   120 r.124                 1653.56      -1864.25               
   121 r.125                -1898.62      -1953.35               
   122 r.126                 -1725.6      -1926.07               
   123 r.127                  70.494      -1953.35               
   124 r.128                 243.516      -1926.07               
   125 r.129                 1972.57       26.8432               
   126 r.130                -1975.07      -1975.07               
   127 r.131                 1965.75       40.6249               
   128 r.132                -1960.75      -1960.75               
   129 r.133                 1926.12       29.8576               
   130 r.134                -1923.62      -1975.07               
   131 r.135                 88.5447       43.8188               
   132 r.136                -93.5447      -1960.75               
   133 r.137                -1953.35      -1953.35               
   134 r.138                -1780.33      -1926.07               
   135 r.139                -1906.46      -1953.35               
   136 r.140                -1733.43      -1926.07               
   137 r.141                 1950.72       22.1014               
   138 r.142                -1945.72      -1975.07               
   139 r.143                 34.7259       34.7259               
   140 r.144                -44.7259      -1960.75               
   141 r.145                 222.428       71.6847               
   142 r.146                -222.428      -1975.07               
   143 r.147                 197.639        70.434               
   144 r.148                -197.639      -1960.75               
   145 r.149                -1849.26      -1895.91               
   146 r.150                -126.773      -1864.25               
   147 r.151                -1802.36      -1895.91               
   148 r.152                -79.8771      -1864.25               
   149 r.153                -1945.27      -1959.49               
   150 r.154                  7.8332      -1929.59               
   151 r.155                 23.8456      -1959.49               
   152 r.156                 1976.95      -1929.59               
   153 r.157                 26.8432       26.8432               
   154 r.158                -29.3432       -1977.9               
   155 r.159                 1921.02       40.6249               
   156 r.160                -1916.02      -1965.27               
   157 r.161                  1980.4       29.8576               
   158 r.162                 -1977.9       -1977.9               
   159 r.163                 43.8188       43.8188               
   160 r.164                -48.8188      -1965.27               
   161 r.165                 100.926       44.1484               
   162 r.166                -100.926       -1977.9               
   163 r.167                 221.841       68.9273               
   164 r.168                -221.841      -1965.27               
   165 r.169                 54.2777       24.9345               
   166 r.170                -54.2777       -1977.9               
   167 r.171                 1955.27       39.2521               
   168 r.172                -1955.27      -1965.27               
   169 r.173                -1723.29      -1895.62               
   170 r.174                -1794.98      -1864.18               
   171 r.175                 -1775.4      -1895.62               
   172 r.176                -1847.09      -1864.18               
   173 r.177                -1794.98      -1895.91               
   174 r.178                -72.4957      -1864.25               
   175 r.179                -1847.09      -1895.91               
   176 r.180                -124.603      -1864.25               
   177 r.181                0.451797       -1972.9               
   178 r.182                -1947.44      -1955.27               
   179 r.183                 1969.57       -1972.9               
   180 r.184                 21.6752      -1955.27               
   181 r.185                -1752.64      -1895.62               
   182 r.186                -1824.32      -1864.18               
   183 r.187                -1691.42      -1895.62               
   184 r.188                -1763.11      -1864.18               
   185 r.189                 1703.69       29.8576               
   186 r.190                -1701.19      -1928.32               
   187 r.191                 1890.91       43.8188               
   188 r.192                -1895.91      -1929.57               
   189 r.193                 1824.22       44.1484               
   190 r.194                -1824.22      -1928.32               
   191 r.195                 68.9273       68.9273               
   192 r.196                -68.9273      -1929.57               
   193 r.197                 1777.57       24.9345               
   194 r.198                -1777.57      -1928.32               
   195 r.199                 1802.36       39.2521               
   196 r.200                -1802.36      -1929.57               
   197 r.201                -1723.29      -1895.62               
   198 r.202                -1794.98      -1864.18               
   199 r.203                 -1775.4      -1895.62               
   200 r.204                -1847.09      -1864.18               
   201 r.205                 1928.32       71.4013               
   202 r.206                -1928.32      -1928.32               
   203 r.207                 1722.48       70.3683               
   204 r.208                -1722.48      -1929.57               
   205 r.209                 1821.82       26.8432               
   206 r.210                -1824.32       -1928.6               
   207 r.211                 45.6249       40.6249               
   208 r.212                -40.6249      -1929.63               
   209 r.213                -1772.88      -1895.91               
   210 r.214                -50.3943      -1864.25               
   211 r.215                -1895.91      -1895.91               
   212 r.216                -173.422      -1864.25               
   213 r.217                -1895.91      -1895.91               
   214 r.218                -173.422      -1864.25               
   215 r.219                -68.9273      -1895.91               
   216 r.220                 1653.56      -1864.25               
   217 r.221                -1849.26      -1895.91               
   218 r.222                -126.773      -1864.25               
   219 r.223                -1802.36      -1895.91               
   220 r.224                -79.8771      -1864.25               
   221 r.225                -1794.98      -1895.91               
   222 r.226                -72.4957      -1864.25               
   223 r.227                -1847.09      -1895.91               
   224 r.228                -124.603      -1864.25               
   225 r.229                 71.6847       71.6847               
   226 r.230                -71.6847       -1928.6               
   227 r.231                 277.516        70.434               
   228 r.232                -277.516      -1929.63               
   229 r.233                -1970.21      -1970.66               
   230 r.234                -31.4189      -1954.38               
   231 r.235                -1.08891      -1970.66               
   232 r.236                  1937.7      -1954.38               
   233 r.237                -21.6496      -1967.64               
   234 r.238                -1898.62      -1951.18               
   235 r.239                 1947.47      -1967.64               
   236 r.240                  70.494      -1951.18               
   237 r.241                -1898.62      -1953.35               
   238 r.242                 -1725.6      -1926.07               
   239 r.243                  70.494      -1953.35               
   240 r.244                 243.516      -1926.07               
   241 r.245                -1945.27      -1959.49               
   242 r.246                  7.8332      -1929.59               
   243 r.247                 23.8456      -1959.49               
   244 r.248                 1976.95      -1929.59               
   245 r.249                0.451797       -1972.9               
   246 r.250                -1947.44      -1955.27               
   247 r.251                 1969.57       -1972.9               
   248 r.252                 21.6752      -1955.27               

   No. Column name       Activity     Lower bound   Upper bound
------ ------------    ------------- ------------- -------------
     1 tt                    207.639             0               
     2 s_1_1        *              1             0             1 
     3 t_1_1                 175.677             0               
     4 s_1_6        *              0             0             1 
     5 s_2_1        *              0             0             1 
     6 t_2_1                 236.891             0               
     7 s_2_6        *              1             0             1 
     8 s_1_2        *              0             0             1 
     9 t_1_2                 227.122             0               
    10 s_1_7        *              1             0             1 
    11 s_2_2        *              1             0             1 
    12 t_2_2                 104.095             0               
    13 s_2_7        *              0             0             1 
    14 s_1_3        *              1             0             1 
    15 t_1_3                 104.095             0               
    16 s_2_3        *              0             0             1 
    17 t_2_3                 1931.07             0               
    18 s_1_4        *              1             0             1 
    19 t_1_4                 150.743             0               
    20 s_2_4        *              0             0             1 
    21 t_2_4                 197.639             0               
    22 s_1_5        *              0             0             1 
    23 t_1_5                 205.021             0               
    24 s_2_5        *              1             0             1 
    25 t_2_5                 152.913             0               
    26 t_1_6                 1928.32             0               
    27 t_2_6                       0             0               
    28 t_1_7                       0             0               
    29 t_2_7                 277.516             0               
    30 s_1_8        *              1             0             1 
    31 t_1_8                 205.472             0               
    32 s_2_8        *              0             0             1 
    33 t_2_8                 2174.59             0               
    34 u_1_1_2      *              1             0             1 
    35 u_2_1_2      *              0             0             1 
    36 u_1_1_3      *              0             0             1 
    37 u_2_1_3      *              1             0             1 
    38 u_1_1_4      *              0             0             1 
    39 u_2_1_4      *              0             0             1 
    40 u_1_1_5      *              1             0             1 
    41 u_2_1_5      *              0             0             1 
    42 u_1_1_7      *              0             0             1 
    43 u_2_1_7      *              1             0             1 
    44 u_1_2_1      *              0             0             1 
    45 u_2_2_1      *              1             0             1 
    46 u_1_2_3      *              0             0             1 
    47 u_2_2_3      *              1             0             1 
    48 u_1_2_4      *              0             0             1 
    49 u_2_2_4      *              1             0             1 
    50 u_1_2_5      *              0             0             1 
    51 u_2_2_5      *              1             0             1 
    52 u_1_2_6      *              1             0             1 
    53 u_2_2_6      *              0             0             1 
    54 u_1_3_1      *              1             0             1 
    55 u_2_3_1      *              0             0             1 
    56 u_1_3_2      *              1             0             1 
    57 u_2_3_2      *              0             0             1 
    58 u_1_3_5      *              1             0             1 
    59 u_2_3_5      *              0             0             1 
    60 u_1_3_6      *              1             0             1 
    61 u_2_3_6      *              0             0             1 
    62 u_1_4_1      *              1             0             1 
    63 u_2_4_1      *              1             0             1 
    64 u_1_4_2      *              1             0             1 
    65 u_2_4_2      *              0             0             1 
    66 u_1_4_5      *              1             0             1 
    67 u_2_4_5      *              0             0             1 
    68 u_1_4_6      *              1             0             1 
    69 u_2_4_6      *              0             0             1 
    70 u_1_5_1      *              0             0             1 
    71 u_2_5_1      *              1             0             1 
    72 u_1_5_2      *              1             0             1 
    73 u_2_5_2      *              0             0             1 
    74 u_1_5_3      *              0             0             1 
    75 u_2_5_3      *              1             0             1 
    76 u_1_5_4      *              0             0             1 
    77 u_2_5_4      *              1             0             1 
    78 u_1_6_2      *              0             0             1 
    79 u_2_6_2      *              1             0             1 
    80 u_1_6_3      *              0             0             1 
    81 u_2_6_3      *              1             0             1 
    82 u_1_6_4      *              0             0             1 
    83 u_2_6_4      *              1             0             1 
    84 u_1_6_7      *              0             0             1 
    85 u_2_6_7      *              1             0             1 
    86 u_1_7_1      *              1             0             1 
    87 u_2_7_1      *              0             0             1 
    88 u_1_7_6      *              1             0             1 
    89 u_2_7_6      *              0             0             1 

Integer feasibility conditions:

KKT.PE: max.abs.err = 4.55e-13 on row 47
        max.rel.err = 1.08e-16 on row 79
        High quality

KKT.PB: max.abs.err = 2.27e-13 on row 117
        max.rel.err = 1.06e-15 on row 51
        High quality

End of output
